NAME : 10.81310.tour
COMMENT : Length = 81310
COMMENT : Found by LKH-3 [Keld Helsgaun] Thu Jun 19 18:16:13 2025
TYPE : TOUR
DIMENSION : 100
TOUR_SECTION
1
24
12
71
38
39
41
85
48
98
2
63
74
67
11
54
45
31
81
89
34
51
6
100
86
9
60
32
50
26
14
15
35
29
83
55
52
7
70
25
62
94
61
10
40
64
99
5
13
44
46
59
77
69
23
16
47
97
84
68
78
96
58
36
19
66
82
4
49
87
93
22
27
57
80
88
20
18
53
37
79
28
56
8
92
42
75
21
91
65
43
3
72
90
95
76
33
73
17
30
-1
EOF
